outputs/demo_outputs/demo_outputs/rsa_demo_benchmark_output/64/certs/0014.assert.smt2
; benchmark generated from python API
(set-info :status unknown)
(declare-fun p () Int)
(declare-fun q () Int)
(declare-fun n () Int)
(assert
 (= p 2393532137))
(assert
 (= q 2880218521))
(assert
 (= n 6893895591596109377))
(assert
 (let ((?x31 (* p q)))
 (= ?x31 n)))
(assert
 (> p 1))
(assert
 (> q 1))
(check-sat)
